Input file: instance_19.lp
Input data:
num_squadre(3).
player(1, attaccante, portiere).
player(2, centrocampista, difensore).
player(3, portiere, difensore).
player(4, attaccante, portiere).
player(5, difensore, portiere).
player(6, attaccante, difensore).
player(7, difensore, portiere).
player(8, difensore, attaccante).
player(9, portiere, difensore).
player(10, centrocampista, difensore).
player(11, centrocampista, difensore).
player(12, attaccante, centrocampista).
player(13, portiere, centrocampista).
player(14, attaccante, portiere).
different_team(1, 2).
different_team(1, 3).
different_team(2, 3).


Output Clingo:
clingo version 5.7.1
Reading from ...ed-Reasoning-Project\Clingo\implASP.lp ...
Solving...
Answer: 1
assigned(1,2,portiere) assigned(2,3,difensore) assigned(3,1,portiere) assigned(4,2,attaccante) assigned(5,1,difensore) assigned(6,1,attaccante) assigned(7,1,difensore) assigned(8,2,difensore) assigned(9,3,difensore) assigned(10,2,centrocampista) assigned(11,3,centrocampista) assigned(12,1,centrocampista) assigned(13,3,portiere) assigned(14,3,attaccante) total_penalty(1)
Optimization: 1
Answer: 1
assigned(1,3,attaccante) assigned(2,2,centrocampista) assigned(3,1,difensore) assigned(4,2,attaccante) assigned(5,2,portiere) assigned(6,3,difensore) assigned(7,3,portiere) assigned(8,2,difensore) assigned(9,1,portiere) assigned(10,3,centrocampista) assigned(11,3,centrocampista) assigned(12,1,centrocampista) assigned(13,3,centrocampista) assigned(14,1,attaccante) total_penalty(1)
Optimization: 1
OPTIMUM FOUND

Models       : 2+
  Optimum    : yes
Optimization : 1
Calls        : 1
Time         : 0.007s (Solving: 0.00s 1st Model: 0.00s Unsat: 0.00s)
CPU Time     : 0.000s

Tempo di esecuzione Clingo: 0.02 secondi
